c Reduced graph for 2-FullIns_5 generated by Cyril Grelier
p edge 89 545
e 1 9
e 1 12
e 1 21
e 1 22
e 1 23
e 1 24
e 1 29
e 1 37
e 1 38
e 1 39
e 1 40
e 1 41
e 1 42
e 1 43
e 1 44
e 1 52
e 1 53
e 1 54
e 1 55
e 1 56
e 1 57
e 1 58
e 1 59
e 1 60
e 1 61
e 1 62
e 1 70
e 1 71
e 1 72
e 1 73
e 1 74
e 1 75
e 1 76
e 1 77
e 1 78
e 1 79
e 1 80
e 1 81
e 1 82
e 1 83
e 1 84
e 1 85
e 1 86
e 1 87
e 1 88
e 1 89
e 2 8
e 2 18
e 2 19
e 2 20
e 2 24
e 2 28
e 2 30
e 2 31
e 2 32
e 2 33
e 2 34
e 2 35
e 2 36
e 2 42
e 2 43
e 2 44
e 2 49
e 2 50
e 2 51
e 2 52
e 2 53
e 2 54
e 2 55
e 2 56
e 2 57
e 2 58
e 2 62
e 2 63
e 2 64
e 2 65
e 2 66
e 2 67
e 2 68
e 2 69
e 2 77
e 2 78
e 2 79
e 2 80
e 2 81
e 2 82
e 2 83
e 2 84
e 2 85
e 2 86
e 3 10
e 3 11
e 3 13
e 3 25
e 3 26
e 3 27
e 3 28
e 3 29
e 3 37
e 3 45
e 3 46
e 3 47
e 3 48
e 3 49
e 3 50
e 3 51
e 3 59
e 3 60
e 3 61
e 3 62
e 3 63
e 3 64
e 3 65
e 3 66
e 3 67
e 3 68
e 3 69
e 3 73
e 3 74
e 3 75
e 3 76
e 3 77
e 3 78
e 3 79
e 3 80
e 3 81
e 3 82
e 3 83
e 3 84
e 3 85
e 3 86
e 3 87
e 3 88
e 3 89
e 4 5
e 4 6
e 4 7
e 4 16
e 4 17
e 4 18
e 4 19
e 4 20
e 4 21
e 4 22
e 4 23
e 4 25
e 4 26
e 4 27
e 4 32
e 4 33
e 4 40
e 4 41
e 4 42
e 4 43
e 4 44
e 4 47
e 4 48
e 4 49
e 4 50
e 4 51
e 4 54
e 4 55
e 4 59
e 4 60
e 4 61
e 4 65
e 4 66
e 4 75
e 4 76
e 4 77
e 4 78
e 4 79
e 4 82
e 4 83
e 5 6
e 5 7
e 5 8
e 5 12
e 5 13
e 5 19
e 5 20
e 5 22
e 5 23
e 5 24
e 5 26
e 5 27
e 5 28
e 5 37
e 5 43
e 5 44
e 5 50
e 5 51
e 5 60
e 5 61
e 5 62
e 5 78
e 5 79
e 6 7
e 6 8
e 6 12
e 6 13
e 6 18
e 6 20
e 6 21
e 6 23
e 6 24
e 6 25
e 6 27
e 6 28
e 6 37
e 6 42
e 6 44
e 6 49
e 6 51
e 6 59
e 6 61
e 6 62
e 6 77
e 6 79
e 7 8
e 7 12
e 7 13
e 7 18
e 7 19
e 7 21
e 7 22
e 7 24
e 7 25
e 7 26
e 7 28
e 7 37
e 7 42
e 7 43
e 7 49
e 7 50
e 7 59
e 7 60
e 7 62
e 7 77
e 7 78
e 8 9
e 8 11
e 8 16
e 8 17
e 8 21
e 8 22
e 8 23
e 8 25
e 8 26
e 8 27
e 8 29
e 8 40
e 8 41
e 8 47
e 8 48
e 8 59
e 8 60
e 8 61
e 8 75
e 8 76
e 9 10
e 9 18
e 9 19
e 9 20
e 9 28
e 9 30
e 9 31
e 9 32
e 9 33
e 9 34
e 9 35
e 9 36
e 9 49
e 9 50
e 9 51
e 9 63
e 9 64
e 9 65
e 9 66
e 9 67
e 9 68
e 9 69
e 10 12
e 10 21
e 10 22
e 10 23
e 10 24
e 10 38
e 10 39
e 10 40
e 10 41
e 10 42
e 10 43
e 10 44
e 10 52
e 10 53
e 10 54
e 10 55
e 10 56
e 10 57
e 10 58
e 10 70
e 10 71
e 10 72
e 11 18
e 11 19
e 11 20
e 11 24
e 11 30
e 11 31
e 11 32
e 11 33
e 11 34
e 11 35
e 11 36
e 11 42
e 11 43
e 11 44
e 11 52
e 11 53
e 11 54
e 11 55
e 11 56
e 11 57
e 11 58
e 12 16
e 12 17
e 12 18
e 12 19
e 12 20
e 12 25
e 12 26
e 12 27
e 12 32
e 12 33
e 12 47
e 12 48
e 12 49
e 12 50
e 12 51
e 12 65
e 12 66
e 13 16
e 13 17
e 13 18
e 13 19
e 13 20
e 13 21
e 13 22
e 13 23
e 13 32
e 13 33
e 13 40
e 13 41
e 13 42
e 13 43
e 13 44
e 13 54
e 13 55
e 14 15
e 14 17
e 14 31
e 14 33
e 14 39
e 14 41
e 14 46
e 14 48
e 14 53
e 14 55
e 14 64
e 14 66
e 14 74
e 14 76
e 14 81
e 14 83
e 15 16
e 15 30
e 15 32
e 15 38
e 15 40
e 15 45
e 15 47
e 15 52
e 15 54
e 15 63
e 15 65
e 15 73
e 15 75
e 15 80
e 15 82
e 16 24
e 16 28
e 16 31
e 16 37
e 16 39
e 16 46
e 16 53
e 16 62
e 16 64
e 16 74
e 16 81
e 17 24
e 17 28
e 17 30
e 17 37
e 17 38
e 17 45
e 17 52
e 17 62
e 17 63
e 17 73
e 17 80
e 18 22
e 18 23
e 18 26
e 18 27
e 18 29
e 18 37
e 18 60
e 18 61
e 19 21
e 19 23
e 19 25
e 19 27
e 19 29
e 19 37
e 19 59
e 19 61
e 20 21
e 20 22
e 20 25
e 20 26
e 20 29
e 20 37
e 20 59
e 20 60
e 21 26
e 21 27
e 21 28
e 21 50
e 21 51
e 22 25
e 22 27
e 22 28
e 22 49
e 22 51
e 23 25
e 23 26
e 23 28
e 23 49
e 23 50
e 24 25
e 24 26
e 24 27
e 24 47
e 24 48
e 25 43
e 25 44
e 26 42
e 26 44
e 27 42
e 27 43
e 28 40
e 28 41
e 29 30
e 29 31
e 29 32
e 29 33
e 29 34
e 29 35
e 29 36
e 30 39
e 30 41
e 30 46
e 30 48
e 30 74
e 30 76
e 31 38
e 31 40
e 31 45
e 31 47
e 31 73
e 31 75
e 32 37
e 32 39
e 32 46
e 32 74
e 33 37
e 33 38
e 33 45
e 33 73
e 34 35
e 34 36
e 34 57
e 34 58
e 34 68
e 34 69
e 34 85
e 34 86
e 35 36
e 35 56
e 35 58
e 35 67
e 35 69
e 35 84
e 35 86
e 36 56
e 36 57
e 36 67
e 36 68
e 36 84
e 36 85
e 38 46
e 38 48
e 38 64
e 38 66
e 39 45
e 39 47
e 39 63
e 39 65
e 40 46
e 40 64
e 41 45
e 41 63
e 45 53
e 45 55
e 46 52
e 46 54
e 47 53
e 48 52
e 56 68
e 56 69
e 57 67
e 57 69
e 58 67
e 58 68
e 70 71
e 70 72
e 70 88
e 70 89
e 71 72
e 71 87
e 71 89
e 72 87
e 72 88
